NAME          COPTPROB
OBJSENSE
  MIN
ROWS
 N  __OBJ___
 L  C14     
 L  C26     
 L  C35     
 L  C39     
 L  C50     
 L  C57     
 L  C72     
 L  C85     
 L  C87     
 L  C102    
 L  C106    
 L  C107    
 L  C127    
 L  C140    
 L  C144    
 L  C158    
 L  C188    
 L  C190    
 L  C194    
COLUMNS
    MARKER    'MARKER'                 'INTORG'
    x21       __OBJ___  183
    x21       C50       -1
    x35       __OBJ___  264
    x35       C102      -1
    x35       C144      -1
    x97       __OBJ___  524
    x97       C85       -1
    x97       C188      -1
    x109      __OBJ___  176
    x109      C39       -1
    x109      C190      -1
    x113      __OBJ___  487
    x113      C188      -1
    x132      __OBJ___  224
    x132      C85       -1
    x196      __OBJ___  220
    x196      C57       -1
    x196      C194      -1
    x217      __OBJ___  346
    x217      C26       -1
    x217      C35       -1
    x264      __OBJ___  345
    x264      C140      -1
    x264      C194      -1
    x297      __OBJ___  106
    x297      C190      -1
    x306      __OBJ___  298
    x306      C35       -1
    x306      C50       -1
    x375      __OBJ___  260
    x375      C190      -1
    x375      C194      -1
    x381      __OBJ___  228
    x381      C140      -1
    x427      __OBJ___  198
    x427      C50       -1
    x427      C106      -1
    x431      __OBJ___  316
    x431      C57       -1
    x431      C127      -1
    x455      __OBJ___  256
    x455      C57       -1
    x455      C85       -1
    x466      __OBJ___  5
    x466      C72       -1
    x466      C87       -1
    x511      __OBJ___  248
    x511      C140      -1
    x511      C144      -1
    x513      __OBJ___  84
    x513      C14       -1
    x513      C87       -1
    x565      __OBJ___  84
    x565      C26       -1
    x601      __OBJ___  105
    x601      C14       -1
    x601      C106      -1
    x633      __OBJ___  103
    x633      C102      -1
    x633      C107      -1
    x656      __OBJ___  28
    x656      C107      -1
    x658      __OBJ___  197
    x658      C107      -1
    x658      C127      -1
    x660      __OBJ___  216
    x660      C26       -1
    x660      C158      -1
    x741      __OBJ___  559
    x741      C127      -1
    x741      C188      -1
    x767      __OBJ___  213
    x767      C39       -1
    x767      C158      -1
    x771      __OBJ___  224
    x771      C72       -1
    x771      C144      -1
    x786      __OBJ___  298
    x786      C106      -1
    x786      C194      -1
    MARKER    'MARKER'                 'INTEND'
RHS
    RHS       __OBJ___  -16185
    RHS       C14       -1
    RHS       C26       -1
    RHS       C35       -1
    RHS       C39       -1
    RHS       C50       -1
    RHS       C57       -1
    RHS       C72       -1
    RHS       C85       -1
    RHS       C87       -1
    RHS       C102      -1
    RHS       C106      -1
    RHS       C107      -1
    RHS       C127      -1
    RHS       C140      -1
    RHS       C144      -1
    RHS       C158      -1
    RHS       C188      -1
    RHS       C190      -1
    RHS       C194      -1
BOUNDS
 UP BOUND     x21       1
 UP BOUND     x35       1
 UP BOUND     x97       1
 UP BOUND     x109      1
 UP BOUND     x113      1
 UP BOUND     x132      1
 UP BOUND     x196      1
 UP BOUND     x217      1
 UP BOUND     x264      1
 UP BOUND     x297      1
 UP BOUND     x306      1
 UP BOUND     x375      1
 UP BOUND     x381      1
 UP BOUND     x427      1
 UP BOUND     x431      1
 UP BOUND     x455      1
 UP BOUND     x466      1
 UP BOUND     x511      1
 UP BOUND     x513      1
 UP BOUND     x565      1
 UP BOUND     x601      1
 UP BOUND     x633      1
 UP BOUND     x656      1
 UP BOUND     x658      1
 UP BOUND     x660      1
 UP BOUND     x741      1
 UP BOUND     x767      1
 UP BOUND     x771      1
 UP BOUND     x786      1
ENDATA
